c WARNING: for repeatability, setting FPU to use double precision
d VARIABLES            22400        
d CONSTRAINTS          88127        
c ============================[ Problem Statistics ]=============================
c |                                                                             |
c |  Number of variables:         22400                                         |
c |  Number of clauses:           88127                                         |
c |  Parse time:                   0.02 s                                       |
c |                                                                             |
c ============================[ Search Statistics ]==============================
c | Conflicts |          ORIGINAL         |          LEARNT          | Progress |
c |           |    Vars  Clauses Literals |    Limit  Clauses Lit/Cl |          |
c ===============================================================================
c |       100 |   15904    69651   171348 |    25538      100     89 | 29.000 % |
c |       250 |   15904    69651   171348 |    28092      250     94 | 29.000 % |
c ===============================================================================
c restarts              : 3
c conflicts             : 373            (4908 /sec)
c decisions             : 1713           (0.00 % random) (22538 /sec)
c propagations          : 491786         (6470528 /sec)
c conflict literals     : 45941          (9.49 % deleted)
d RESTARTS             3
d FAILURES             373          
d NODES                1713         
d BACKTRACKS           1713         
d PROPAGATIONS         491786       
d NOGOODSIZE           123.17 
d MEMORY               12.00 
d TIME                 0.076004 

s SATISFIABLE
